certificates/rado_a6_c70_N13.cnf
c Rad2 upper bound instance: x1 + 6*x2 - x3 = 70, interval [1,13]
p cnf 13 56
1 3 12 0
-1 -3 -12 0
1 9 13 0
-1 -9 -13 0
2 4 12 0
-2 -4 -12 0
2 10 13 0
-2 -10 -13 0
3 5 12 0
-3 -5 -12 0
3 11 13 0
-3 -11 -13 0
4 6 12 0
-4 -6 -12 0
4 12 13 0
-4 -12 -13 0
1 5 11 0
-1 -5 -11 0
5 7 12 0
-5 -7 -12 0
5 13 0
-5 -13 0
2 6 11 0
-2 -6 -11 0
6 8 12 0
-6 -8 -12 0
3 7 11 0
-3 -7 -11 0
7 9 12 0
-7 -9 -12 0
4 8 11 0
-4 -8 -11 0
8 10 12 0
-8 -10 -12 0
5 9 11 0
-5 -9 -11 0
9 11 12 0
-9 -11 -12 0
6 10 11 0
-6 -10 -11 0
10 12 0
-10 -12 0
1 10 11 0
-1 -10 -11 0
7 11 0
-7 -11 0
11 12 13 0
-11 -12 -13 0
2 10 12 0
-2 -10 -12 0
8 11 12 0
-8 -11 -12 0
3 10 13 0
-3 -10 -13 0
9 11 13 0
-9 -11 -13 0
