certificates/rado_a6_c70_N13.drat
-12 -13 0
-13 0
5 0
12 0
-10 0
-3 0
-7 0
2 0
0
